Instance name : R101
Authors : bauke
Date :    21-05-13
Reference : N/A
Solution
Route 1 : 2 21 73 41 56 4
Route 2 : 5 83 61 85 37 93
Route 3 : 14 44 38 43 13
Route 4 : 27 69 76 79 3 54 24 80
Route 5 : 28 12 40 53 26
Route 6 : 30 51 9 66 1
Route 7 : 31 88 7 10
Route 8 : 33 29 78 34 35 77
Route 9 : 36 47 19 8 46 17
Route 10 : 39 23 67 55 25
Route 11 : 45 82 18 84 60 89
Route 12 : 52 6
Route 13 : 59 99 94 96
Route 14 : 62 11 90 20 32 70
Route 15 : 63 64 49 48
Route 16 : 65 71 81 50 68
Route 17 : 72 75 22 74 58
Route 18 : 92 42 15 87 57 97
Route 19 : 95 98 16 86 91 100

